db/inputs/7213015930821196068863316801654113.smt2
(set-logic QF_FP)
(declare-const x0 (_ FloatingPoint 11 53))
(declare-const x1 (_ FloatingPoint 11 53))
(declare-const x2 (_ FloatingPoint 11 53))
(declare-const x3 (_ FloatingPoint 11 53))
(declare-const x4 (_ FloatingPoint 11 53))
(assert (fp.geq (fp.div RNE x3 x1) (fp.add RNE x0 x2)))
(assert (fp.lt (fp.neg x4) (fp.sub RNE x0 x3)))
(assert (fp.lt (fp.sub RNE x3 x3) (fp.sub RNE x0 x1)))
(assert (fp.eq (fp.neg x1) (fp.mul RNE x0 x3)))
(assert (fp.lt (fp.sub RNE x3 x3) (fp.mul RNE x0 x1)))
(assert (fp.eq (fp.neg x2) (fp.neg x2)))
(assert (fp.lt (fp.neg x0) (fp.neg x3)))
(check-sat)
