db/data/7213015930821196068863316801654113.z3.out
sat
-------------------
68.252296209
